(set-info :smt-lib-version 2.6)
(set-logic QF_S)
(set-info :source |
Generated by: Murphy Berzish, Mitja Kulczynski, Federico Mora, Florin Manea, Joel Day, Dirk Nowotka, Vijay Ganesh, Zhengyang Lu
Generated on: 2020-10-01
Description: Translated from a collection of real-world regex queries, AutomataArk, collected by Loris D’Antoni and Fang Wang: https://github.com/lorisdanto/automatark
Application: Evaluate solvers on real-world regex queries
Target solver: Z3str3RE, CVC4, OSTRICH, Z3seq, Z3str3, Z3-Trau
Publications: Berzish, M., Kulczynski, M., Mora, F., Manea, F., Day, J. D., Nowotka, D., & Ganesh, V. (2021, July). An SMT solver for regular expressions and linear arithmetic over string length. In CAV 2021.
|)
(set-info :license "https://creativecommons.org/licenses/by/4.0/")
(set-info :category "industrial")
(set-info :status unsat)

(declare-const X String)
(assert (not (str.in_re X (re.++ (str.to_re ".php") (re.+ (re.union (str.to_re " ") (str.to_re "\u{9}") (str.to_re "\u{a}") (str.to_re "\u{c}") (str.to_re "\u{d}"))) (str.to_re "www.webfringe.com\u{a}")))))
(assert (str.in_re X (re.++ (re.union (re.++ (re.opt (str.to_re "0")) (re.range "1" "9")) (re.++ (re.union (str.to_re "1") (str.to_re "2")) (re.range "0" "9")) (re.++ (str.to_re "3") (re.union (str.to_re "0") (str.to_re "1")))) (re.union (str.to_re "/") (str.to_re " ") (str.to_re "-")) (re.union (re.++ (re.opt (str.to_re "0")) (re.range "1" "9")) (re.++ (str.to_re "1") (re.union (str.to_re "1") (str.to_re "2")))) (re.union (str.to_re "/") (str.to_re " ") (str.to_re "-")) (re.union (re.++ (str.to_re "19") ((_ re.loop 2 2) (re.range "0" "9"))) (re.++ (str.to_re "2") (re.range "0" "9") ((_ re.loop 2 2) (re.range "0" "9")))) (str.to_re "\u{a}"))))
(assert (str.in_re X (re.++ (re.union (re.range "a" "z") (re.range "A" "Z")) ((_ re.loop 0 30) (re.union (re.range "0" "9") (re.range "A" "Z") (re.range "a" "z") (str.to_re "_"))) (str.to_re "\u{a}"))))
(assert (str.in_re X (re.++ (str.to_re "/filename=") (re.* (re.comp (str.to_re "\u{a}"))) (str.to_re ".wal/i\u{a}"))))
(assert (not (str.in_re X (re.++ (str.to_re "\u{a}") (re.union (re.range "A" "P") (re.range "R" "U") (str.to_re "W") (str.to_re "Y") (str.to_re "Z") (re.range "a" "p") (re.range "r" "u") (str.to_re "w") (str.to_re "y") (str.to_re "z")) (re.union ((_ re.loop 1 2) (re.range "0" "9")) (re.++ (re.union (re.range "A" "H") (re.range "K" "Y") (re.range "a" "h") (re.range "k" "y")) (re.range "0" "9") (re.union (re.range "0" "9") (str.to_re "A") (str.to_re "B") (str.to_re "E") (str.to_re "H") (str.to_re "M") (str.to_re "N") (str.to_re "P") (str.to_re "R") (re.range "V" "Y") (str.to_re "a") (str.to_re "b") (str.to_re "e") (str.to_re "h") (str.to_re "m") (str.to_re "n") (str.to_re "p") (str.to_re "r") (re.range "v" "y"))) (re.++ (re.range "0" "9") (re.union (re.range "A" "H") (str.to_re "J") (str.to_re "K") (re.range "S" "U") (str.to_re "W") (re.range "a" "h") (str.to_re "j") (str.to_re "k") (re.range "s" "u") (str.to_re "w"))))))))
(check-sat)

(exit)
